Welcome to the CBC MILP Solver 
Version: 2.10.3 
Build Date: Dec 15 2019 

command line - C:\Users\yvarh\Code\Nutrition Optimizer\venv\Lib\site-packages\pulp\solverdir\cbc\win\64\cbc.exe C:\Users\yvarh\AppData\Local\Temp\dec85ffbd727430682242918f2d602a6-pulp.mps timeMode elapsed branch printingOptions all solution C:\Users\yvarh\AppData\Local\Temp\dec85ffbd727430682242918f2d602a6-pulp.sol (default strategy 1)
At line 2 NAME          MODEL
At line 3 ROWS
At line 11 COLUMNS
At line 91 RHS
At line 98 BOUNDS
At line 109 ENDATA
Problem MODEL has 6 rows, 10 columns and 49 elements
Coin0008I MODEL read with 0 errors
Option for timeMode changed from cpu to elapsed
Continuous objective value is 5.29932 - 0.00 seconds
Cgl0003I 0 fixed, 0 tightened bounds, 1 strengthened rows, 0 substitutions
Cgl0003I 0 fixed, 0 tightened bounds, 1 strengthened rows, 0 substitutions
Cgl0004I processed model has 5 rows, 10 columns (10 integer (2 of which binary)) and 39 elements
Cutoff increment increased from 1e-05 to 0.0999
Cbc0012I Integer solution of 6.8 found by DiveCoefficient after 0 iterations and 0 nodes (0.00 seconds)
Cbc0038I Full problem 5 rows 10 columns, reduced to 2 rows 2 columns
Cbc0031I 4 added rows had average density of 9
Cbc0013I At root node, 4 cuts changed objective from 5.4435741 to 5.7836728 in 100 passes
Cbc0014I Cut generator 0 (Probing) - 3 row cuts average 2.0 elements, 1 column cuts (1 active)  in 0.003 seconds - new frequency is -100
Cbc0014I Cut generator 1 (Gomory) - 258 row cuts average 9.0 elements, 0 column cuts (0 active)  in 0.007 seconds - new frequency is 1
Cbc0014I Cut generator 2 (Knapsack) - 0 row cuts average 0.0 elements, 0 column cuts (0 active)  in 0.000 seconds - new frequency is -100
Cbc0014I Cut generator 3 (Clique) - 0 row cuts average 0.0 elements, 0 column cuts (0 active)  in 0.000 seconds - new frequency is -100
Cbc0014I Cut generator 4 (MixedIntegerRounding2) - 60 row cuts average 9.1 elements, 0 column cuts (0 active)  in 0.001 seconds - new frequency is 1
Cbc0014I Cut generator 5 (FlowCover) - 0 row cuts average 0.0 elements, 0 column cuts (0 active)  in 0.003 seconds - new frequency is -100
Cbc0014I Cut generator 6 (TwoMirCuts) - 29 row cuts average 8.1 elements, 0 column cuts (0 active)  in 0.001 seconds - new frequency is 1
Cbc0010I After 0 nodes, 1 on tree, 6.8 best solution, best possible 5.7836728 (0.02 seconds)
Cbc0012I Integer solution of 6.2 found by DiveCoefficient after 353 iterations and 1 nodes (0.03 seconds)
Cbc0012I Integer solution of 5.8 found by DiveCoefficient after 389 iterations and 2 nodes (0.03 seconds)
Cbc0001I Search completed - best objective 5.800000000000001, took 389 iterations and 2 nodes (0.03 seconds)
Cbc0032I Strong branching done 22 times (51 iterations), fathomed 0 nodes and fixed 0 variables
Cbc0035I Maximum depth 2, 0 variables fixed on reduced cost
Cuts at root node changed objective from 5.44357 to 5.78367
Probing was tried 100 times and created 4 cuts of which 0 were active after adding rounds of cuts (0.003 seconds)
Gomory was tried 113 times and created 284 cuts of which 0 were active after adding rounds of cuts (0.007 seconds)
Knapsack was tried 100 times and created 0 cuts of which 0 were active after adding rounds of cuts (0.000 seconds)
Clique was tried 100 times and created 0 cuts of which 0 were active after adding rounds of cuts (0.000 seconds)
MixedIntegerRounding2 was tried 113 times and created 79 cuts of which 0 were active after adding rounds of cuts (0.002 seconds)
FlowCover was tried 100 times and created 0 cuts of which 0 were active after adding rounds of cuts (0.003 seconds)
TwoMirCuts was tried 113 times and created 43 cuts of which 0 were active after adding rounds of cuts (0.001 seconds)
ZeroHalf was tried 1 times and created 0 cuts of which 0 were active after adding rounds of cuts (0.000 seconds)

Result - Optimal solution found

Objective value:                5.80000000
Enumerated nodes:               2
Total iterations:               389
Time (CPU seconds):             0.03
Time (Wallclock seconds):       0.03

Option for printingOptions changed from normal to all
Total time (CPU seconds):       0.04   (Wallclock seconds):       0.04

